7
10000 374 200 223 108 178 252 
374 10000 255 166 433 199 135
200 255 10000 128 277 128 180
223 166 128 10000 430 047 052
108 433 277 430 10000 453 478
178 199 128 047 453 10000 091
252 135 180 052 478 091 10000 